CMPL model generation - running

CMPL version: 1.11.0
Authors: Thomas Schleiff, Mike Steglich
Distributed under the GPLv3 

create model instance ...
write model instance ...
CMPL model generation - finished

Solver - running


Welcome to IBM(R) ILOG(R) CPLEX(R) Interactive Optimizer 12.7.1.0
  with Simplex, Mixed Integer & Barrier Optimizers
5725-A06 5725-A29 5724-Y48 5724-Y49 5724-Y54 5724-Y55 5655-Y21
Copyright IBM Corp. 1988, 2017.  All Rights Reserved.

Type 'help' for a list of available commands.
Type 'help' followed by a command name for more
information on commands.

CPLEX> Specified objective sense: MINIMIZE
Selected objective  name:  line[1]
Selected RHS        name:  RHS
Selected bound      name:  BOUND
Problem '/tmp/cmpl.T23512.mps' read.
Read time = 0.06 sec. (8.16 ticks)
CPLEX> CPXPARAM_Read_APIEncoding                        "UTF-8"
Tried aggregator 3 times.
MIP Presolve eliminated 19302 rows and 30820 columns.
MIP Presolve modified 340 coefficients.
Aggregator did 588 substitutions.
Reduced MIP has 2465 rows, 3185 columns, and 9315 nonzeros.
Reduced MIP has 3017 binaries, 0 generals, 0 SOSs, and 0 indicators.
Presolve time = 0.05 sec. (41.66 ticks)
Found incumbent of value 848.774858 after 0.10 sec. (106.68 ticks)
Probing fixed 4 vars, tightened 0 bounds.
Probing time = 0.01 sec. (4.04 ticks)
Tried aggregator 1 time.
MIP Presolve eliminated 0 rows and 4 columns.
MIP Presolve modified 19 coefficients.
Reduced MIP has 2465 rows, 3181 columns, and 9307 nonzeros.
Reduced MIP has 3181 binaries, 0 generals, 0 SOSs, and 0 indicators.
Presolve time = 0.01 sec. (7.98 ticks)
Probing time = 0.01 sec. (2.67 ticks)
Clique table members: 5378.
MIP emphasis: balance optimality and feasibility.
MIP search method: dynamic search.
Parallel mode: none, using 1 thread.
Root relaxation solution time = 0.00 sec. (4.26 ticks)

        Nodes                                         Cuts/
   Node  Left     Objective  IInf  Best Integer    Best Bound    ItCnt     Gap

*     0+    0                          848.7749      -37.6594           104.44%
      0     0       33.2034    21      848.7749       33.2034       68   96.09%
*     0+    0                           76.0103       33.2034            56.32%
*     0+    0                           33.8034       33.2034             1.77%
      0     0        cutoff             33.8034                     68    0.00%
Elapsed time = 0.15 sec. (139.30 ticks, tree = 0.01 MB, solutions = 3)

Root node processing (before b&c):
  Real time             =    0.15 sec. (140.78 ticks)
Sequential b&c:
  Real time             =    0.00 sec. (0.00 ticks)
                          ------------
Total (root+branch&cut) =    0.15 sec. (140.78 ticks)

Solution pool: 3 solutions saved.

MIP - Integer optimal solution:  Objective =  3.3803429000e+01
Solution time =    0.15 sec.  Iterations = 68  Nodes = 0
Deterministic time = 140.88 ticks  (944.59 ticks/sec)

CPLEX> Incumbent solution written to file '/tmp/cmpl.T23512.gsol'.
CPLEX> 
CMPL: Time used for model generation: 1 seconds
CMPL: Time used for solving the model: 1 seconds


Solution written to ASCII file: results/output_generated_conf_0.1/2015-12-07-4/fair-nonlinear.sol

Solver - finished
